100 1465
840 868 821 958 892 1153 244 706 878 1037 800 237 959 907 739 1071 1032 951 823 1141 1136 1056 999 1080 772 585 848 188 899 999 945 463 565 516 552 757 1133 837 1135 1145 894 178 953 992 742 408 1117 1075 434 620 747 1148 528 963 667 1111 788 524 1097 1118 699 948 794 271 780 1142 1007 339 658 214 898 552 59 1109 1028 1014 1023 1152 173 638 1048 1113 678 981 993 903 910 503 928 849 562 1067 1149 634 281 938 855 629 393 1016 
447 483 425 609 514 998 34 304 495 743 400 32 612 535 336 809 735 599 427 966 954 780 677 829 370 203 457 20 523 677 590 125 189 156 180 354 946 444 951 976 517 18 602 664 339 96 909 817 109 230 344 983 164 618 269 895 387 161 865 912 297 595 394 42 379 970 690 66 261 26 522 180 2 890 727 703 719 994 17 244 764 899 278 647 666 529 539 148 565 459 187 802 986 241 45 579 466 237 89 705 
